s SATISFIABLE
v -1 -2 -3 -4 -5 -6 -7 -8 -9 10 -20 -30 -40 -50 -60 -70 -80 -90 -100 -11 -12 -13 -14 -15 -16 -17 -18 19 -29 -39 -49 -59 -69 -79 -89 -99 -21 -22 -23 -24 -25 -26 -27 28 -38 -48 -58 -68 -78 -88 -98 -31 -32 -33 -34 -35 -36 37 -47 -57 -67 -77 -87 -97 -41 -42 -43 -44 -45 46 -56 -66 -76 -86 -96 -51 -52 -53 -54 55 -65 -75 -85 -95 -61 -62 -63 64 -74 -84 -94 -71 -72 73 -83 -93 -81 82 -92 91 
26.153127997531556 ms
